p cnf 95 324
-3 -1 0
-3 -2 0
1 2 3 0
-5 3 0
-5 -4 0
-3 4 5 0
6 7 -8 0
-6 -7 -8 0
6 -7 8 0
-6 7 8 0
-7 -9 -10 0
7 9 -10 0
-7 9 10 0
7 -9 10 0
-10 11 -12 0
10 -11 -12 0
-10 -11 12 0
10 11 12 0
-13 -8 0
-13 -12 0
8 12 13 0
-14 5 0
-14 -13 0
-5 13 14 0
-17 16 0
-17 4 0
-16 -4 17 0
17 -11 -18 0
-17 11 -18 0
17 11 18 0
-17 -11 18 0
15 -18 -19 0
-15 18 -19 0
15 18 19 0
-15 -18 19 0
-20 1 0
-20 19 0
-1 -19 20 0
-11 -20 -21 0
11 20 -21 0
-11 20 21 0
11 -20 21 0
22 14 0
22 21 0
-14 -21 -22 0
-3 -23 -24 0
3 23 -24 0
-3 23 24 0
3 -23 24 0
-25 -22 0
-25 24 0
22 -24 25 0
-27 26 0
-27 -4 0
-26 4 27 0
28 25 0
28 -27 0
-25 27 -28 0
29 2 0
29 10 0
-2 -10 -29 0
-30 -7 0
-30 18 0
7 -18 30 0
4 -11 -31 0
-4 11 -31 0
4 11 31 0
-4 -11 31 0
32 30 0
32 31 0
-30 -31 -32 0
33 -29 0
33 32 0
29 -32 -33 0
10 -9 -34 0
-10 9 -34 0
10 9 34 0
-10 -9 34 0
-35 -33 0
-35 34 0
33 -34 35 0
37 -35 0
37 36 0
35 -36 -37 0
-38 11 0
-38 7 0
-11 -7 38 0
38 6 -39 0
-38 -6 -39 0
38 -6 39 0
-38 6 39 0
-40 16 0
-40 39 0
-16 -39 40 0
37 -40 -41 0
-37 40 -41 0
37 40 41 0
-37 -40 41 0
-42 -38 0
-42 -17 0
38 17 42 0
43 -39 0
43 42 0
39 -42 -43 0
44 41 0
44 -43 0
-41 43 -44 0
45 6 0
45 -1 0
-6 1 -45 0
-46 45 0
-46 32 0
-45 -32 46 0
47 39 0
47 -46 0
-39 46 -47 0
48 32 0
48 6 0
-32 -6 -48 0
-49 47 0
-49 -48 0
-47 48 49 0
48 -26 -50 0
-48 26 -50 0
48 26 50 0
-48 -26 50 0
29 -2 -51 0
-29 2 -51 0
29 2 51 0
-29 -2 51 0
-52 50 0
-52 51 0
-50 -51 52 0
-53 49 0
-53 52 0
-49 -52 53 0
54 -44 0
54 53 0
44 -53 -54 0
-34 11 -55 0
34 -11 -55 0
-34 -11 55 0
34 11 55 0
-56 55 0
-56 45 0
-55 -45 56 0
-57 13 0
-57 46 0
-13 -46 57 0
58 9 0
58 -16 0
-9 16 -58 0
-59 -42 0
-59 58 0
42 -58 59 0
-60 -57 0
-60 59 0
57 -59 60 0
61 -56 0
61 -60 0
56 60 -61 0
62 -42 0
62 -19 0
42 19 -62 0
63 48 0
63 -42 0
-48 42 -63 0
18 -30 -64 0
-18 30 -64 0
18 30 64 0
-18 -30 64 0
63 -64 -65 0
-63 64 -65 0
63 64 65 0
-63 -64 65 0
66 -23 0
66 -42 0
23 42 -66 0
-67 65 0
-67 66 0
-65 -66 67 0
-68 62 0
-68 67 0
-62 -67 68 0
-69 61 0
-69 68 0
-61 -68 69 0
-54 -69 -70 0
54 69 -70 0
-54 69 70 0
54 -69 70 0
-71 28 0
-71 -70 0
-28 70 71 0
72 -7 -73 0
-72 7 -73 0
72 7 73 0
-72 -7 73 0
74 73 0
74 -73 0
8 -5 -75 0
-8 5 -75 0
8 5 75 0
-8 -5 75 0
76 -75 0
76 26 0
75 -26 -76 0
77 74 0
77 76 0
-74 -76 -77 0
78 -7 0
78 -31 0
7 31 -78 0
79 -77 0
79 -78 0
77 78 -79 0
-39 2 -80 0
39 -2 -80 0
-39 -2 80 0
39 2 80 0
-79 80 -81 0
79 -80 -81 0
-79 -80 81 0
79 80 81 0
2 39 -82 0
-2 -39 -82 0
2 -39 82 0
-2 39 82 0
82 50 -83 0
-82 -50 -83 0
82 -50 83 0
-82 50 83 0
-84 81 0
-84 -83 0
-81 83 84 0
85 -10 0
85 6 0
10 -6 -85 0
87 85 0
87 86 0
-85 -86 -87 0
7 82 -88 0
-7 -82 -88 0
7 -82 88 0
-7 82 88 0
89 87 0
89 -88 0
-87 88 -89 0
-47 29 -90 0
47 -29 -90 0
-47 -29 90 0
47 29 90 0
89 -90 -91 0
-89 90 -91 0
89 90 91 0
-89 -90 91 0
92 -84 0
92 -91 0
84 91 -92 0
93 48 0
93 -20 0
-48 20 -93 0
92 93 -94 0
-92 -93 -94 0
92 -93 94 0
-92 93 94 0
-95 -71 0
-95 -94 0
71 94 95 0
-6 -47 -51 19 54 38 0
60 83 -93 0
11 -7 0
31 -66 53 48 67 0
21 48 38 40 0
-60 56 -47 63 31 0
75 -93 -47 52 0
68 32 -27 90 -22 -60 0
66 -7 11 -92 0
-56 65 -29 46 43 0
-92 -64 16 0
-57 -83 64 0
81 92 -23 0
72 -54 17 0
-20 -26 4 53 0
-20 45 -95 79 66 0
5 53 0
-45 -35 -31 -5 6 0
64 -21 0
19 20 -73 -49 0
50 -70 86 -13 0
-22 62 30 71 0
65 -32 -50 59 -83 -7 0
92 89 79 11 7 71 0
60 6 17 -68 0
95 15 -38 0
57 58 -62 0
-53 2 48 -28 -10 -77 0
86 -48 25 -12 -94 0
30 75 -23 0
16 86 59 0
-15 82 0
79 86 -91 71 22 0
-76 31 94 0
60 94 -48 2 10 -59 0
-67 25 19 -34 -91 60 0
85 -18 79 -36 -64 0
-72 8 -51 -17 21 0
-41 -17 -58 -83 0
18 -5 -81 41 15 0
62 34 0
54 -5 0
-31 -82 0
-38 -26 35 0
-69 30 -39 -6 63 -44 0
-90 -17 0
-62 40 0
-67 0
-90 48 54 -30 65 0
-12 25 1 -28 5 0
-6 -84 -17 -23 -51 0
-53 91 -65 90 0
84 4 95 0
52 -1 -72 17 0
95 0
